22
12
46
99
3
18
26
67
87
57
98
17
42
2
51
19
21
39
74
6
53
31
38
37
24
0
60
90
32
28
45
81
83
48
8
85
43
82
97
89
1
76
34
52
35
50
54
44
72
78
49
75
7
23
56
55
16
71
4
58
33
9
29
73
94
14
36
80
69
47
64
92
20
25
70
5
13
62
96
27
59
68
15
10
40
77
11
65
95
61
79
88
84
91
86
93
41
30
66
63
